p cnf 111 364
3 1 0
3 -2 0
-1 2 -3 0
6 -4 0
6 5 0
4 -5 -6 0
3 -6 -7 0
-3 6 -7 0
3 6 7 0
-3 -6 7 0
-10 8 0
-10 -9 0
-8 9 10 0
10 9 -11 0
-10 -9 -11 0
10 -9 11 0
-10 9 11 0
-12 -7 0
-12 -11 0
7 11 12 0
13 -8 0
13 4 0
8 -4 -13 0
14 -12 0
14 -13 0
12 13 -14 0
17 -15 0
17 -16 0
15 16 -17 0
-12 17 -18 0
12 -17 -18 0
-12 -17 18 0
12 17 18 0
-19 3 0
-19 8 0
-3 -8 19 0
21 -19 0
21 -20 0
19 20 -21 0
-22 -21 0
-22 -1 0
21 1 22 0
18 -22 -23 0
-18 22 -23 0
18 22 23 0
-18 -22 23 0
-25 -24 0
-25 -11 0
24 11 25 0
-25 26 -27 0
25 -26 -27 0
-25 -26 27 0
25 26 27 0
-23 27 -28 0
23 -27 -28 0
-23 -27 28 0
23 27 28 0
-29 -14 0
-29 28 0
14 -28 29 0
30 7 0
30 -8 0
-7 8 -30 0
31 -29 0
31 -30 0
29 30 -31 0
32 -16 0
32 -9 0
16 9 -32 0
-17 -33 -34 0
17 33 -34 0
-17 33 34 0
17 -33 34 0
35 -32 0
35 -34 0
32 34 -35 0
-37 -13 0
-37 36 0
13 -36 37 0
-38 33 0
-38 -37 0
-33 37 38 0
-39 8 -40 0
39 -8 -40 0
-39 -8 40 0
39 8 40 0
4 -40 -41 0
-4 40 -41 0
4 40 41 0
-4 -40 41 0
-42 -20 0
-42 36 0
20 -36 42 0
-43 41 0
-43 -42 0
-41 42 43 0
43 10 -44 0
-43 -10 -44 0
43 -10 44 0
-43 10 44 0
-44 11 -45 0
44 -11 -45 0
-44 -11 45 0
44 11 45 0
46 -38 0
46 45 0
38 -45 -46 0
-35 -46 -47 0
35 46 -47 0
-35 46 47 0
35 -46 47 0
-39 -4 -48 0
39 4 -48 0
-39 4 48 0
39 -4 48 0
-49 36 0
-49 48 0
-36 -48 49 0
-49 -1 -50 0
49 1 -50 0
-49 1 50 0
49 -1 50 0
51 -50 0
51 33 0
50 -33 -51 0
-52 -47 0
-52 51 0
47 -51 52 0
-17 15 -53 0
17 -15 -53 0
-17 -15 53 0
17 15 53 0
-54 37 0
-54 -16 0
-37 16 54 0
-55 53 0
-55 -54 0
-53 54 55 0
4 -9 -56 0
-4 9 -56 0
4 9 56 0
-4 -9 56 0
56 -11 -57 0
-56 11 -57 0
56 11 57 0
-56 -11 57 0
58 -55 0
58 -57 0
55 57 -58 0
58 -38 -59 0
-58 38 -59 0
58 38 59 0
-58 -38 59 0
60 -33 -61 0
-60 33 -61 0
60 33 61 0
-60 -33 61 0
62 19 0
62 -33 0
-19 33 -62 0
63 -61 0
63 -62 0
61 62 -63 0
-64 59 0
-64 -63 0
-59 63 64 0
52 -64 -65 0
-52 64 -65 0
52 64 65 0
-52 -64 65 0
-66 -31 0
-66 65 0
31 -65 66 0
13 36 -67 0
-13 -36 -67 0
13 -36 67 0
-13 36 67 0
-68 -42 0
-68 3 0
42 -3 68 0
69 -36 0
69 2 0
36 -2 -69 0
70 69 0
70 48 0
-69 -48 -70 0
-71 -68 0
-71 70 0
68 -70 71 0
72 -67 0
72 -71 0
67 71 -72 0
-73 19 0
-73 10 0
-19 -10 73 0
-74 72 0
-74 -73 0
-72 73 74 0
53 20 -75 0
-53 -20 -75 0
53 -20 75 0
-53 20 75 0
5 39 -76 0
-5 -39 -76 0
5 -39 76 0
-5 39 76 0
77 -76 0
77 49 0
76 -49 -77 0
-75 77 -78 0
75 -77 -78 0
-75 -77 78 0
75 77 78 0
79 -74 0
79 -78 0
74 78 -79 0
-80 8 0
-80 15 0
-8 -15 80 0
81 -39 0
81 2 0
39 -2 -81 0
-19 -70 -83 0
19 70 -83 0
-19 70 83 0
19 -70 83 0
-84 -82 0
-84 -83 0
82 83 84 0
-81 -84 -85 0
81 84 -85 0
-81 84 85 0
81 -84 85 0
36 -17 -86 0
-36 17 -86 0
36 17 86 0
-36 -17 86 0
87 -2 0
87 -17 0
2 17 -87 0
88 -86 0
88 -87 0
86 87 -88 0
89 85 0
89 -88 0
-85 88 -89 0
48 42 -90 0
-48 -42 -90 0
48 -42 90 0
-48 42 90 0
-91 13 0
-91 -6 0
-13 6 91 0
-92 -91 0
-92 75 0
91 -75 92 0
93 -90 0
93 -92 0
90 92 -93 0
-94 8 0
-94 37 0
-8 -37 94 0
-95 93 0
-95 94 0
-93 -94 95 0
-96 89 0
-96 95 0
-89 -95 96 0
-97 21 0
-97 -21 0
-25 -97 -98 0
25 97 -98 0
-25 97 98 0
25 -97 98 0
-38 -53 -99 0
38 53 -99 0
-38 53 99 0
38 -53 99 0
99 17 -100 0
-99 -17 -100 0
99 -17 100 0
-99 17 100 0
-101 15 0
-101 -17 0
-15 17 101 0
-102 101 0
-102 -39 0
-101 39 102 0
103 26 0
103 16 0
-26 -16 -103 0
-104 -103 0
-104 69 0
103 -69 104 0
-105 -102 0
-105 -104 0
102 104 105 0
106 -100 0
106 105 0
100 -105 -106 0
107 -98 0
107 -106 0
98 106 -107 0
-108 96 0
-108 107 0
-96 -107 108 0
-109 -80 0
-109 108 0
80 -108 109 0
110 -79 0
110 109 0
79 -109 -110 0
66 110 -111 0
-66 -110 -111 0
66 -110 111 0
-66 110 111 0
-92 103 110 0
-32 -77 -29 -104 0
-82 78 0
27 4 0
-32 54 -59 -2 -33 -44 0
35 -68 101 83 -64 0
-23 -72 31 12 -7 0
-92 -87 -36 0
-23 46 -103 -12 0
37 -84 82 108 -22 -17 0
103 34 -58 99 0
27 111 0
14 -39 -13 74 0
102 -47 -108 0
-111 24 7 12 16 0
-22 -4 82 95 -19 -88 0
41 29 73 -24 -87 0
2 85 -8 -52 86 61 0
48 22 34 83 0
-103 -6 0
42 71 -53 -24 65 83 0
12 1 76 -47 0
33 79 0
-90 0
94 66 -7 104 0
-10 -23 -89 0
80 57 34 0
-26 -78 13 -44 58 -104 0
1 -100 -3 73 0
-92 34 -27 -53 63 0
44 36 -16 20 0
83 103 -22 -87 0
-63 67 48 97 20 0
105 56 0
-69 -72 37 -15 0
77 -96 -93 0
-38 63 -91 0
64 -37 -79 0
-42 11 0
91 57 -21 -52 -92 0
64 70 -5 -28 0
-90 0
49 51 24 68 31 0
-18 -103 -36 0
-68 110 -41 0
-98 -79 0
57 -99 0
111 0
